c File: flat50_3_0.col
c
c SOURCE: Joseph Culberson (joe@cs.ualberta.ca)
c DESCRIPTION: Quasi-random coloring problem
c              generated with flatness = 0
c                             probability = 0.139
c                             known coloring = 3
c                             random seed = 1956
c              Creation Date:  Tue Jun  9 12:22:03 1998
c Maximum degree = 8 Minimum degree = 0
c p edge 50 115
c cnf created by edge2cnf
p cnf 150 545
-1 -2 0
-1 -3 0
-2 -3 0
1 2 3 0
-4 -5 0
-4 -6 0
-5 -6 0
4 5 6 0
-7 -8 0
-7 -9 0
-8 -9 0
7 8 9 0
-10 -11 0
-10 -12 0
-11 -12 0
10 11 12 0
-13 -14 0
-13 -15 0
-14 -15 0
13 14 15 0
-16 -17 0
-16 -18 0
-17 -18 0
16 17 18 0
-19 -20 0
-19 -21 0
-20 -21 0
19 20 21 0
-22 -23 0
-22 -24 0
-23 -24 0
22 23 24 0
-25 -26 0
-25 -27 0
-26 -27 0
25 26 27 0
-28 -29 0
-28 -30 0
-29 -30 0
28 29 30 0
-31 -32 0
-31 -33 0
-32 -33 0
31 32 33 0
-34 -35 0
-34 -36 0
-35 -36 0
34 35 36 0
-37 -38 0
-37 -39 0
-38 -39 0
37 38 39 0
-40 -41 0
-40 -42 0
-41 -42 0
40 41 42 0
-43 -44 0
-43 -45 0
-44 -45 0
43 44 45 0
-46 -47 0
-46 -48 0
-47 -48 0
46 47 48 0
-49 -50 0
-49 -51 0
-50 -51 0
49 50 51 0
-52 -53 0
-52 -54 0
-53 -54 0
52 53 54 0
-55 -56 0
-55 -57 0
-56 -57 0
55 56 57 0
-58 -59 0
-58 -60 0
-59 -60 0
58 59 60 0
-61 -62 0
-61 -63 0
-62 -63 0
61 62 63 0
-64 -65 0
-64 -66 0
-65 -66 0
64 65 66 0
-67 -68 0
-67 -69 0
-68 -69 0
67 68 69 0
-70 -71 0
-70 -72 0
-71 -72 0
70 71 72 0
-73 -74 0
-73 -75 0
-74 -75 0
73 74 75 0
-76 -77 0
-76 -78 0
-77 -78 0
76 77 78 0
-79 -80 0
-79 -81 0
-80 -81 0
79 80 81 0
-82 -83 0
-82 -84 0
-83 -84 0
82 83 84 0
-85 -86 0
-85 -87 0
-86 -87 0
85 86 87 0
-88 -89 0
-88 -90 0
-89 -90 0
88 89 90 0
-91 -92 0
-91 -93 0
-92 -93 0
91 92 93 0
-94 -95 0
-94 -96 0
-95 -96 0
94 95 96 0
-97 -98 0
-97 -99 0
-98 -99 0
97 98 99 0
-100 -101 0
-100 -102 0
-101 -102 0
100 101 102 0
-103 -104 0
-103 -105 0
-104 -105 0
103 104 105 0
-106 -107 0
-106 -108 0
-107 -108 0
106 107 108 0
-109 -110 0
-109 -111 0
-110 -111 0
109 110 111 0
-112 -113 0
-112 -114 0
-113 -114 0
112 113 114 0
-115 -116 0
-115 -117 0
-116 -117 0
115 116 117 0
-118 -119 0
-118 -120 0
-119 -120 0
118 119 120 0
-121 -122 0
-121 -123 0
-122 -123 0
121 122 123 0
-124 -125 0
-124 -126 0
-125 -126 0
124 125 126 0
-127 -128 0
-127 -129 0
-128 -129 0
127 128 129 0
-130 -131 0
-130 -132 0
-131 -132 0
130 131 132 0
-133 -134 0
-133 -135 0
-134 -135 0
133 134 135 0
-136 -137 0
-136 -138 0
-137 -138 0
136 137 138 0
-139 -140 0
-139 -141 0
-140 -141 0
139 140 141 0
-142 -143 0
-142 -144 0
-143 -144 0
142 143 144 0
-145 -146 0
-145 -147 0
-146 -147 0
145 146 147 0
-148 -149 0
-148 -150 0
-149 -150 0
148 149 150 0
-52 -1 0
-53 -2 0
-54 -3 0
-61 -1 0
-62 -2 0
-63 -3 0
-70 -1 0
-71 -2 0
-72 -3 0
-73 -1 0
-74 -2 0
-75 -3 0
-106 -1 0
-107 -2 0
-108 -3 0
-109 -1 0
-110 -2 0
-111 -3 0
-115 -1 0
-116 -2 0
-117 -3 0
-130 -1 0
-131 -2 0
-132 -3 0
-58 -4 0
-59 -5 0
-60 -6 0
-73 -4 0
-74 -5 0
-75 -6 0
-97 -4 0
-98 -5 0
-99 -6 0
-124 -4 0
-125 -5 0
-126 -6 0
-136 -4 0
-137 -5 0
-138 -6 0
-55 -7 0
-56 -8 0
-57 -9 0
-61 -7 0
-62 -8 0
-63 -9 0
-106 -7 0
-107 -8 0
-108 -9 0
-112 -7 0
-113 -8 0
-114 -9 0
-55 -10 0
-56 -11 0
-57 -12 0
-76 -10 0
-77 -11 0
-78 -12 0
-103 -10 0
-104 -11 0
-105 -12 0
-61 -13 0
-62 -14 0
-63 -15 0
-70 -13 0
-71 -14 0
-72 -15 0
-73 -13 0
-74 -14 0
-75 -15 0
-100 -13 0
-101 -14 0
-102 -15 0
-103 -13 0
-104 -14 0
-105 -15 0
-118 -13 0
-119 -14 0
-120 -15 0
-100 -16 0
-101 -17 0
-102 -18 0
-139 -16 0
-140 -17 0
-141 -18 0
-55 -19 0
-56 -20 0
-57 -21 0
-70 -19 0
-71 -20 0
-72 -21 0
-145 -19 0
-146 -20 0
-147 -21 0
-70 -22 0
-71 -23 0
-72 -24 0
-79 -22 0
-80 -23 0
-81 -24 0
-91 -22 0
-92 -23 0
-93 -24 0
-100 -22 0
-101 -23 0
-102 -24 0
-124 -22 0
-125 -23 0
-126 -24 0
-97 -25 0
-98 -26 0
-99 -27 0
-109 -25 0
-110 -26 0
-111 -27 0
-115 -25 0
-116 -26 0
-117 -27 0
-103 -28 0
-104 -29 0
-105 -30 0
-121 -28 0
-122 -29 0
-123 -30 0
-136 -28 0
-137 -29 0
-138 -30 0
-148 -28 0
-149 -29 0
-150 -30 0
-58 -31 0
-59 -32 0
-60 -33 0
-73 -31 0
-74 -32 0
-75 -33 0
-91 -31 0
-92 -32 0
-93 -33 0
-118 -31 0
-119 -32 0
-120 -33 0
-124 -31 0
-125 -32 0
-126 -33 0
-142 -31 0
-143 -32 0
-144 -33 0
-148 -31 0
-149 -32 0
-150 -33 0
-52 -34 0
-53 -35 0
-54 -36 0
-55 -34 0
-56 -35 0
-57 -36 0
-64 -34 0
-65 -35 0
-66 -36 0
-97 -34 0
-98 -35 0
-99 -36 0
-103 -34 0
-104 -35 0
-105 -36 0
-142 -34 0
-143 -35 0
-144 -36 0
-52 -37 0
-53 -38 0
-54 -39 0
-85 -37 0
-86 -38 0
-87 -39 0
-100 -37 0
-101 -38 0
-102 -39 0
-130 -37 0
-131 -38 0
-132 -39 0
-139 -37 0
-140 -38 0
-141 -39 0
-148 -37 0
-149 -38 0
-150 -39 0
-112 -40 0
-113 -41 0
-114 -42 0
-142 -40 0
-143 -41 0
-144 -42 0
-148 -40 0
-149 -41 0
-150 -42 0
-61 -43 0
-62 -44 0
-63 -45 0
-79 -43 0
-80 -44 0
-81 -45 0
-112 -43 0
-113 -44 0
-114 -45 0
-136 -43 0
-137 -44 0
-138 -45 0
-142 -43 0
-143 -44 0
-144 -45 0
-145 -43 0
-146 -44 0
-147 -45 0
-88 -46 0
-89 -47 0
-90 -48 0
-106 -46 0
-107 -47 0
-108 -48 0
-133 -46 0
-134 -47 0
-135 -48 0
-52 -49 0
-53 -50 0
-54 -51 0
-58 -49 0
-59 -50 0
-60 -51 0
-64 -49 0
-65 -50 0
-66 -51 0
-97 -49 0
-98 -50 0
-99 -51 0
-121 -52 0
-122 -53 0
-123 -54 0
-148 -52 0
-149 -53 0
-150 -54 0
-142 -55 0
-143 -56 0
-144 -57 0
-112 -58 0
-113 -59 0
-114 -60 0
-115 -58 0
-116 -59 0
-117 -60 0
-145 -58 0
-146 -59 0
-147 -60 0
-124 -61 0
-125 -62 0
-126 -63 0
-127 -61 0
-128 -62 0
-129 -63 0
-142 -61 0
-143 -62 0
-144 -63 0
-133 -64 0
-134 -65 0
-135 -66 0
-136 -64 0
-137 -65 0
-138 -66 0
-118 -70 0
-119 -71 0
-120 -72 0
-130 -70 0
-131 -71 0
-132 -72 0
-103 -73 0
-104 -74 0
-105 -75 0
-142 -73 0
-143 -74 0
-144 -75 0
-103 -76 0
-104 -77 0
-105 -78 0
-127 -76 0
-128 -77 0
-129 -78 0
-136 -76 0
-137 -77 0
-138 -78 0
-139 -76 0
-140 -77 0
-141 -78 0
-127 -79 0
-128 -80 0
-129 -81 0
-130 -79 0
-131 -80 0
-132 -81 0
-109 -82 0
-110 -83 0
-111 -84 0
-115 -82 0
-116 -83 0
-117 -84 0
-148 -82 0
-149 -83 0
-150 -84 0
-118 -85 0
-119 -86 0
-120 -87 0
-130 -85 0
-131 -86 0
-132 -87 0
-145 -85 0
-146 -86 0
-147 -87 0
-148 -85 0
-149 -86 0
-150 -87 0
-124 -88 0
-125 -89 0
-126 -90 0
-127 -88 0
-128 -89 0
-129 -90 0
-118 -97 0
-119 -98 0
-120 -99 0
-124 -97 0
-125 -98 0
-126 -99 0
-139 -97 0
-140 -98 0
-141 -99 0
-124 -100 0
-125 -101 0
-126 -102 0
-130 -100 0
-131 -101 0
-132 -102 0
-133 -100 0
-134 -101 0
-135 -102 0
-148 -100 0
-149 -101 0
-150 -102 0
